s 1
v -1 -1684300902 -3 926365492 84215041 -757935410 -1600085861 -8 1010580533 168430082 -673720369 -1515870820 -13 1094795574 252645123 -589505328 -1431655779 2021161066 1179010615 336860164 -505290287 22 2105376107 1263225656 421075205 -421075246 27 -2105376148 1347440697 -30 -336860205 -1179010656 -2021161107 -34 589505287 -252645164 -1094795615 -1936946066 1515870779 -40 -168430123 -1010580574 -1852731025 -44 757935369 -84215082 -926365533 -1768515984 1684300861 842150410 
t 6ms